certificates/rado_a9_c61_N17.cnf
c Rad2 upper bound instance: x1 + 9*x2 - x3 = 61, interval [1,17]
p cnf 17 64
1 3 7 0
-1 -3 -7 0
1 8 12 0
-1 -8 -12 0
2 4 7 0
-2 -4 -7 0
2 8 13 0
-2 -8 -13 0
3 5 7 0
-3 -5 -7 0
3 8 14 0
-3 -8 -14 0
4 6 7 0
-4 -6 -7 0
4 8 15 0
-4 -8 -15 0
5 7 0
-5 -7 0
5 8 16 0
-5 -8 -16 0
6 7 8 0
-6 -7 -8 0
6 8 17 0
-6 -8 -17 0
7 9 0
-7 -9 0
1 6 8 0
-1 -6 -8 0
7 8 10 0
-7 -8 -10 0
2 6 9 0
-2 -6 -9 0
7 9 11 0
-7 -9 -11 0
3 6 10 0
-3 -6 -10 0
7 10 12 0
-7 -10 -12 0
4 6 11 0
-4 -6 -11 0
7 11 13 0
-7 -11 -13 0
5 6 12 0
-5 -6 -12 0
7 12 14 0
-7 -12 -14 0
6 13 0
-6 -13 0
7 13 15 0
-7 -13 -15 0
6 7 14 0
-6 -7 -14 0
7 14 16 0
-7 -14 -16 0
6 8 15 0
-6 -8 -15 0
7 15 17 0
-7 -15 -17 0
6 9 16 0
-6 -9 -16 0
1 5 17 0
-1 -5 -17 0
6 10 17 0
-6 -10 -17 0
