certificates/rado_a9_c61_N17.drat
7 -16 0
8 15 -7 0
-7 -17 0
-17 0
15 16 0
4 6 0
d 4 11 6 0
-8 -15 0
d -4 -8 -15 0
8 16 0
d 8 5 16 0
16 0
7 0
-5 0
-9 0
-14 0
1 0
-3 0
8 0
-15 0
-6 0
-10 0
-12 0
13 0
0
